100
300
30
0 0
77 47
57 94
8 88
83 48
94 59
50 36
32 26
49 17
92 3
20 64
9 33
89 10
41 33
64 86
46 8
54 35
12 44
27 91
63 74
94 17
47 81
69 37
41 6
67 8
8 36
26 10
50 9
8 4
28 80
53 34
0 0
50
60
60
60
70
50
50
40
50
70
60
30
30
40
50
50
60
60
60
70
50
50
40
50
70
60
30
30
40
50
